
List of user-set options:

                                    Name   Value                used
                           compl_inf_tol = 1                     yes
                         constr_viol_tol = 1                     yes
                            dual_inf_tol = 1000                  yes
                           linear_solver = ma97                  yes
                              ma86_small = 1e-30                  no
                                  ma86_u = 0.0001                 no
                              ma97_order = best                  yes
                              ma97_small = 1e-30                 yes
                            ma97_switch1 = at_start              yes
                            ma97_switch2 = od_hd_reuse           yes
                                  ma97_u = 1e-06                 yes
                               ma97_umax = 0.5                   yes
                                max_iter = 1000                  yes
                    max_refinement_steps = 20                    yes
                    min_refinement_steps = 5                     yes
                                 mu_init = 1e-06                 yes
           mu_superlinear_decrease_power = 1.25                  yes
                   nlp_scaling_min_value = 1e-08                 yes
                        option_file_name = Preset_Case_957_pf.opt  yes
                             output_file = ./tmp/Preset_Case_957_pf.output  yes
                      print_user_options = yes                   yes
        required_infeasibility_reduction = 1                      no
                                     tol = 1e-08                 yes
                   warm_start_bound_frac = 1e-20                 yes
                   warm_start_bound_push = 1e-20                 yes
                   warm_start_init_point = yes                   yes
              warm_start_mult_bound_push = 1e-20                 yes
                warm_start_mult_init_max = 1e+40                 yes
             warm_start_slack_bound_frac = 1e-20                 yes
             warm_start_slack_bound_push = 1e-20                 yes

******************************************************************************
This program contains Ipopt, a library for large-scale nonlinear optimization.
 Ipopt is released as open source code under the Eclipse Public License (EPL).
         For more information visit http://projects.coin-or.org/Ipopt
******************************************************************************

This is Ipopt version 3.12.10, running with linear solver ma97.

Number of nonzeros in equality constraint Jacobian...:   123443
Number of nonzeros in inequality constraint Jacobian.:      213
Number of nonzeros in Lagrangian Hessian.............:    49069

Total number of variables............................:    31591
                     variables with only lower bounds:    12912
                variables with lower and upper bounds:    15130
                     variables with only upper bounds:        0
Total number of equality constraints.................:    31483
Total number of inequality constraints...............:       25
        inequality constraints with only lower bounds:        4
   inequality constraints with lower and upper bounds:        0
        inequality constraints with only upper bounds:       21

iter    objective    inf_pr   inf_du lg(mu)  ||d||  lg(rg) alpha_du alpha_pr  ls
   0 -5.3845013e+00 4.01e-03 1.02e+00  -6.0 0.00e+00    -  0.00e+00 0.00e+00   0
   1 -5.3961538e+00 8.61e+00 3.37e+01  -6.0 4.08e+05    -  7.78e-05 1.11e-03h  1
   2 -5.3961155e+00 8.61e+00 3.37e+01  -6.0 2.43e+03    -  1.05e-04 3.23e-05h  1
   3 -5.3927450e+00 8.60e+00 4.13e+01  -6.0 2.01e+04    -  8.26e-05 1.21e-03h  3
   4 -5.3857336e+00 8.55e+00 1.99e+02  -6.0 4.09e+03    -  2.34e-01 6.11e-03h  2
   5 -5.3842531e+00 8.54e+00 2.05e+02  -6.0 2.75e+03    -  6.54e-03 1.22e-03h  7
   6 -5.3838724e+00 8.54e+00 2.06e+02  -6.0 4.04e+03    -  1.09e-02 3.41e-04h 11
   7 -5.3837774e+00 8.54e+00 2.07e+02  -6.0 4.04e+03    -  1.83e-02 8.53e-05h 13
   8r-5.3837774e+00 8.54e+00 9.99e+02   0.9 0.00e+00    -  0.00e+00 3.34e-07R 21
   9r-5.3902644e+00 8.54e+00 2.22e+03   0.9 4.59e+04    -  3.76e-07 6.86e-08f  1
iter    objective    inf_pr   inf_du lg(mu)  ||d||  lg(rg) alpha_du alpha_pr  ls
  10 -5.4051932e+00 8.53e+00 6.94e+02  -6.0 3.65e+05    -  4.81e-06 1.01e-03h  1
  11 -5.4125347e+00 8.49e+00 2.11e+03  -6.0 1.34e+05    -  1.18e-05 3.88e-03h  1
  12 -5.4523489e+00 4.54e+01 1.51e+05  -6.0 6.08e+04    -  1.16e-04 4.12e-02h  1
  13 -5.5152641e+00 4.48e+01 1.53e+05  -6.0 9.62e+04    -  5.79e-05 1.36e-02h  1
  14 -5.5256883e+00 4.45e+01 1.54e+05  -6.0 4.11e+04    -  1.12e-02 8.82e-03h  1
  15 -5.5325372e+00 4.81e+01 1.58e+05  -6.0 5.28e+04    -  6.46e-03 1.24e-02h  1
  16 -5.5387691e+00 5.36e+01 1.64e+05  -6.0 3.72e+04    -  5.20e-02 1.74e-02h  1
  17 -5.5386610e+00 5.35e+01 1.64e+05  -6.0 1.94e+04    -  2.52e-02 1.05e-03h  1
  18 -5.5376266e+00 5.30e+01 1.63e+05  -6.0 1.83e+04    -  4.23e-02 1.18e-02h  4
  19 -5.5356081e+00 5.24e+01 1.63e+05  -6.0 1.69e+04    -  4.17e-02 1.16e-02h  4
iter    objective    inf_pr   inf_du lg(mu)  ||d||  lg(rg) alpha_du alpha_pr  ls
  20 -5.5328834e+00 5.18e+01 1.61e+05  -6.0 1.62e+04    -  6.02e-02 1.21e-02h  4
  21 -5.5296583e+00 5.12e+01 1.60e+05  -6.0 1.62e+04    -  5.99e-02 1.24e-02h  4
  22 -5.5299928e+00 5.10e+01 1.59e+05  -6.0 2.06e+04    -  3.33e-03 2.62e-03h  1
  23 -5.5280741e+00 5.07e+01 1.58e+05  -6.0 1.23e+04    -  1.14e-01 7.17e-03h  1
  24 -5.5257935e+00 5.03e+01 1.57e+05  -6.0 1.29e+04    -  5.35e-02 7.93e-03h  5
  25 -5.5256380e+00 5.03e+01 1.57e+05  -6.0 1.22e+04    -  2.50e-01 5.27e-04h  9
  26 -5.5200150e+00 4.96e+01 1.54e+05  -6.0 9.79e+03    -  5.15e-01 1.90e-02h  4
  27 -5.5027272e+00 4.78e+01 1.43e+05  -6.0 6.31e+03    -  8.56e-02 5.53e-02h  3
  28 -5.4714305e+00 4.80e+01 8.35e+04  -6.0 5.36e+03    -  3.85e-01 1.08e-01h  1
  29 -5.4301379e+00 4.31e+01 3.26e+04  -6.0 2.62e+03    -  3.31e-03 2.39e-01h  1
iter    objective    inf_pr   inf_du lg(mu)  ||d||  lg(rg) alpha_du alpha_pr  ls
  30 -5.4307099e+00 4.28e+01 1.14e+05  -6.0 6.77e+03    -  1.54e-01 7.99e-03h  1
  31 -5.4587767e+00 3.67e+01 2.09e+05  -6.0 1.99e+03    -  6.84e-02 2.26e-01h  1
  32 -5.4589540e+00 3.66e+01 2.09e+05  -6.0 1.44e+02  -2.0 6.62e-06 8.32e-04h  1
  33 -5.4591316e+00 3.66e+01 2.09e+05  -6.0 1.39e+03    -  1.86e-02 7.53e-04h  1
  34 -5.5346113e+00 2.72e+01 3.44e+05  -6.0 1.11e+03    -  1.48e-02 3.22e-01f  1
  35 -5.5747517e+00 2.35e+01 2.98e+05  -6.0 5.94e+02    -  2.73e-02 1.36e-01h  1
  36 -5.5949972e+00 2.18e+01 2.76e+05  -6.0 8.11e+02    -  1.36e-01 7.18e-02h  1
  37 -5.6230723e+00 1.95e+01 2.47e+05  -6.0 9.37e+02    -  3.60e-01 1.06e-01h  1
  38 -5.7616482e+00 1.02e+01 1.11e+05  -6.0 1.09e+03    -  1.35e-01 5.53e-01h  1
  39 -5.7743738e+00 9.87e+00 5.31e+07  -6.0 2.03e+03    -  9.30e-02 9.00e-02h  1
iter    objective    inf_pr   inf_du lg(mu)  ||d||  lg(rg) alpha_du alpha_pr  ls
  40 -5.9087037e+00 1.66e+01 1.40e+09  -6.0 1.03e+03    -  2.36e-01 9.34e-01h  1
  41 -5.9083311e+00 1.58e+01 1.34e+09  -6.0 4.08e+02    -  2.78e-01 4.82e-02h  1
  42 -5.8897989e+00 6.78e+00 7.86e+08  -6.0 6.22e+02    -  5.54e-01 1.00e+00h  1
  43 -5.8892751e+00 6.57e+00 7.62e+08  -6.0 4.25e-01  -2.5 6.98e-01 3.10e-02h  1
  44 -5.8874756e+00 5.86e+00 6.79e+08  -6.0 3.76e-01  -3.0 1.09e-01 1.09e-01h  1
  45 -5.8854793e+00 5.03e+00 5.83e+08  -6.0 5.79e-01  -3.4 7.03e-01 1.41e-01h  1
  46 -5.8757498e+00 9.13e-04 3.45e+06  -6.0 1.30e+00  -3.9 1.60e-01 1.00e+00h  1
  47 -5.8978960e+00 6.93e-01 2.88e+06  -6.0 6.78e+02    -  2.72e-01 3.05e-01h  1
  48 -5.9090106e+00 1.08e+01 3.47e+04  -6.0 8.15e+02    -  6.30e-02 1.00e+00h  1
  49 -5.9123727e+00 6.49e-03 1.58e+04  -6.0 1.28e+01  -4.4 8.32e-03 1.00e+00h  1
iter    objective    inf_pr   inf_du lg(mu)  ||d||  lg(rg) alpha_du alpha_pr  ls
  50 -5.9133092e+00 9.71e-04 1.11e+03  -6.0 3.87e+00  -4.9 1.00e+00 1.00e+00h  1
  51 -5.9151307e+00 9.59e-03 1.96e+02  -6.0 1.28e+01  -5.3 5.85e-01 1.00e+00h  1
  52 -5.9172694e+00 1.20e-02 1.39e+02  -6.0 2.84e+01  -5.8 7.41e-01 5.03e-01h  1
  53 -5.9260730e+00 2.91e-01 2.41e+02  -6.0 4.54e+02    -  4.40e-01 2.33e-01h  1
  54 -5.9265570e+00 5.85e-01 3.84e+03  -6.0 3.93e+02    -  8.74e-02 4.56e-01h  1
  55 -5.9320655e+00 2.75e-01 1.85e+03  -6.0 8.63e+01  -6.3 4.66e-01 5.30e-01h  1
  56 -5.9419071e+00 1.84e-01 8.67e+03  -6.0 1.06e+02  -6.8 2.34e-01 1.00e+00h  1
  57 -5.9435595e+00 1.71e-01 6.08e+03  -6.0 3.99e+02  -7.2 3.63e-01 7.58e-02h  1
  58 -6.0101207e+00 4.79e+01 2.54e+04  -6.0 4.68e+03  -7.7 3.98e-02 3.71e-01h  1
  59 -6.0096161e+00 4.77e+01 2.20e+04  -6.0 8.14e+03  -8.2 4.41e-02 3.82e-03h  1
iter    objective    inf_pr   inf_du lg(mu)  ||d||  lg(rg) alpha_du alpha_pr  ls
  60 -5.9825797e+00 3.83e+01 2.78e+04  -6.0 5.69e+03    -  7.29e-02 1.97e-01h  1
  61 -5.9768038e+00 3.26e+01 7.48e+04  -6.0 1.66e+03    -  7.97e-01 1.49e-01h  1
  62 -5.9643117e+00 2.20e+01 9.55e+04  -6.0 1.26e+03    -  7.17e-01 3.28e-01h  1
  63 -5.9802636e+00 7.11e+00 1.07e+05  -6.0 3.02e+02    -  1.00e+00 6.78e-01h  1
  64 -5.9910295e+00 5.06e+00 8.02e+04  -6.0 2.83e+02  -7.8 3.85e-01 2.96e-01h  1
  65r-5.9910295e+00 5.06e+00 1.00e+03   0.4 0.00e+00  -8.3 0.00e+00 2.95e-07R  2
  66r-5.9992723e+00 5.05e+00 1.00e+03   0.4 1.56e+04    -  1.98e-07 8.64e-07f  1
  67 -6.0027044e+00 4.34e+00 1.69e+05  -6.0 3.04e+02    -  4.42e-02 1.49e-01h  1
  68 -6.0019665e+00 3.76e+00 1.55e+05  -6.0 9.11e+00    -  1.49e-01 1.32e-01h  1
  69 -6.0009529e+00 2.97e+00 1.22e+05  -6.0 5.99e+00    -  1.35e-01 2.12e-01h  1
iter    objective    inf_pr   inf_du lg(mu)  ||d||  lg(rg) alpha_du alpha_pr  ls
  70 -5.9973207e+00 5.81e-04 7.02e+01  -6.0 3.69e+00    -  6.41e-01 1.00e+00h  1
  71 -5.9979058e+00 8.75e-05 8.27e+00  -6.0 2.19e+00    -  9.50e-01 1.00e+00h  1
  72 -6.0032181e+00 3.23e-02 1.31e+00  -6.0 4.21e+01    -  9.44e-01 1.00e+00h  1
  73 -6.0353165e+00 1.30e+00 3.61e+01  -6.0 3.64e+02    -  9.25e-01 7.31e-01h  1
  74 -6.0410657e+00 1.14e+00 1.18e+02  -6.0 3.88e+02    -  8.09e-01 2.28e-01h  1
  75 -6.0529005e+00 1.40e+00 3.78e+01  -6.0 6.02e+02    -  8.42e-01 6.59e-01h  1
  76 -6.0541515e+00 3.66e-01 6.72e+02  -6.0 2.22e+02  -8.7 9.07e-01 7.48e-01h  1
  77 -6.0581434e+00 1.21e+00 1.12e+03  -6.0 7.17e+02    -  2.99e-01 2.46e-01h  1
  78 -6.0678680e+00 1.52e+00 4.09e+02  -6.0 2.29e+02    -  9.79e-01 1.00e+00h  1
  79 -6.0719432e+00 1.19e+00 6.11e+03  -6.0 2.15e+02    -  3.99e-01 2.92e-01h  1
iter    objective    inf_pr   inf_du lg(mu)  ||d||  lg(rg) alpha_du alpha_pr  ls
  80 -6.0852833e+00 8.08e+00 1.44e+05  -6.0 2.10e+02  -6.5 1.97e-01 9.62e-01h  1
  81 -6.0857323e+00 7.71e+00 6.45e+05  -6.0 8.98e+01  -5.2 1.23e-03 6.75e-02h  1
  82 -6.0867907e+00 5.65e+00 3.18e+05  -6.0 1.10e+01  -5.6 2.41e-03 5.06e-01f  1
  83 -6.0894414e+00 6.88e-01 3.54e+04  -6.0 2.67e+01  -6.1 1.64e-03 1.00e+00h  1
  84 -6.0948464e+00 1.82e+00 1.51e+02  -6.0 9.23e+01  -6.6 5.01e-01 1.00e+00h  1
  85 -6.0955145e+00 8.42e-01 1.72e+00  -6.0 4.90e+00  -5.3 9.45e-01 1.00e+00h  1
  86 -6.0960742e+00 8.79e-01 7.13e-01  -6.0 5.23e+00  -4.8 6.04e-01 5.94e-01h  1
  87 -6.0965441e+00 6.22e-03 2.49e+00  -6.0 4.87e+00  -5.3 1.00e+00 1.00e+00h  1
  88 -6.0968862e+00 1.38e-02 3.46e+00  -6.0 6.29e-01  -4.0 1.00e+00 1.00e+00h  1
  89 -6.0982227e+00 2.76e-01 1.28e+02  -6.0 4.71e+00  -4.5 3.52e-01 4.77e-01h  1
iter    objective    inf_pr   inf_du lg(mu)  ||d||  lg(rg) alpha_du alpha_pr  ls
  90 -6.0985148e+00 2.67e-01 2.75e+04  -6.0 1.65e+01  -4.9 1.00e+00 7.59e-02h  1
  91 -6.1047096e+00 2.46e-01 2.55e+04  -6.0 1.10e+03    -  1.98e-01 7.59e-02h  1
  92 -6.1163809e+00 1.09e+00 1.86e+04  -6.0 9.80e+02    -  4.31e-02 2.46e-01h  1
  93 -6.1232250e+00 1.93e+00 1.31e+04  -6.0 9.11e+02    -  2.74e-01 2.86e-01h  1
  94 -6.1211026e+00 1.78e+00 1.51e+03  -6.0 7.35e+02    -  2.28e-05 1.99e-01H  1
  95 -6.1262601e+00 1.80e+00 2.16e+04  -6.0 5.13e+02    -  1.00e+00 6.33e-01h  1
  96 -6.1315665e+00 1.49e+00 8.50e+03  -6.0 3.39e+02    -  9.47e-01 8.79e-01h  1
  97r-6.1315665e+00 1.49e+00 1.00e+03  -0.1 0.00e+00    -  0.00e+00 4.61e-07R  5
  98r-6.1460915e+00 1.49e+00 1.00e+03  -0.1 8.29e+03    -  9.08e-06 1.98e-06f  1
  99 -6.1449247e+00 1.38e+00 9.38e+05  -6.0 2.75e+00    -  6.53e-01 7.19e-02h  1
iter    objective    inf_pr   inf_du lg(mu)  ||d||  lg(rg) alpha_du alpha_pr  ls
 100 -6.1409695e+00 1.02e+00 3.46e+06  -6.0 3.05e+00    -  7.19e-02 2.61e-01h  1
 101 -6.1296697e+00 2.92e-04 2.09e+02  -6.0 2.32e+00    -  5.63e-01 1.00e+00h  1
 102 -6.1297305e+00 2.98e-05 5.31e+00  -6.0 3.68e-01    -  9.61e-01 1.00e+00h  1
 103 -6.1301609e+00 9.84e-04 3.95e-01  -6.0 4.12e+00    -  9.67e-01 1.00e+00h  1
 104 -6.1315816e+00 9.22e-02 1.29e+00  -6.0 5.33e+01    -  9.40e-01 1.00e+00h  1
 105 -6.1323958e+00 7.12e-02 1.46e+00  -6.0 5.21e+01    -  8.46e-01 1.00e+00h  1
 106 -6.1314945e+00 1.82e-05 1.59e-03  -6.0 1.27e+00  -5.4 1.00e+00 1.00e+00h  1
 107 -6.1315562e+00 3.93e-02 2.49e+00  -6.0 4.88e+01    -  4.91e-01 1.00e+00h  1
 108 -6.1315268e+00 6.25e-06 3.41e-03  -6.0 2.62e+00  -5.9 1.00e+00 1.00e+00h  1
 109 -6.1315356e+00 1.60e-05 2.27e+00  -6.0 5.68e+00  -6.4 7.21e-01 1.00e+00h  1
iter    objective    inf_pr   inf_du lg(mu)  ||d||  lg(rg) alpha_du alpha_pr  ls
 110 -6.1315654e+00 1.02e-03 1.42e-02  -6.0 1.42e+01  -6.9 1.00e+00 1.00e+00h  1
 111 -6.1319458e+00 2.26e-01 4.98e+01  -6.0 1.17e+02  -7.3 2.27e-01 1.00e+00h  1
 112 -6.1332999e+00 4.82e-02 6.26e-01  -6.0 5.46e+01  -6.9 1.00e+00 1.00e+00h  1
 113 -6.1418031e+00 1.39e+00 4.24e+01  -6.0 4.64e+02  -7.4 3.99e-01 1.00e+00H  1
 114 -6.1908538e+00 1.76e+01 2.07e+02  -6.0 1.49e+03  -7.9 2.69e-01 1.00e+00h  1
 115 -6.1925599e+00 1.12e+01 3.13e+03  -6.0 2.72e+03    -  3.90e-01 1.00e+00H  1
 116 -6.1916111e+00 1.12e+01 3.11e+03  -6.0 1.13e+02  -5.6 2.54e-01 6.02e-03h  8
 117 -6.1857717e+00 5.89e+00 1.60e+03  -6.0 3.10e+01  -6.1 5.92e-01 4.72e-01h  1
 118 -6.1827580e+00 3.16e+00 8.44e+02  -6.0 3.77e+01  -6.6 4.20e-01 4.61e-01h  1
 119 -6.1799414e+00 3.06e+00 4.30e+01  -6.0 5.92e+01  -7.1 3.09e-01 1.00e+00H  1
iter    objective    inf_pr   inf_du lg(mu)  ||d||  lg(rg) alpha_du alpha_pr  ls
 120 -6.1803293e+00 6.03e-01 2.06e+01  -6.0 6.90e+00  -5.7 5.63e-01 5.22e-01h  1
 121 -6.1800255e+00 5.89e-01 3.43e+02  -6.0 8.16e+00  -6.2 2.12e-03 8.92e-01h  1
 122 -6.1807477e+00 5.52e-01 5.11e+00  -6.0 3.02e+01  -6.7 9.68e-01 1.00e+00h  1
 123 -6.1815684e+00 1.61e-01 1.88e+02  -6.0 1.73e+00  -4.5 5.06e-01 1.00e+00h  1
 124 -6.1828791e+00 7.74e-02 1.86e+01  -6.0 1.24e+00  -4.0 9.27e-01 9.04e-01h  1
 125 -6.1850956e+00 5.69e-02 1.31e+01  -6.0 6.13e+00  -4.5 3.35e-01 3.82e-01f  1
 126 -6.1884767e+00 9.89e-01 1.03e+04  -6.0 1.33e+03    -  6.40e-01 1.83e-01h  1
 127 -6.1906291e+00 1.53e+00 2.14e+04  -6.0 3.21e+03    -  7.93e-01 1.17e-01h  1
 128 -6.1963666e+00 3.66e+00 1.84e+04  -6.0 8.13e+02    -  8.99e-01 5.42e-01h  1
 129 -6.2006428e+00 1.04e+00 4.39e+04  -6.0 2.59e+02    -  5.14e-01 1.00e+00h  1
iter    objective    inf_pr   inf_du lg(mu)  ||d||  lg(rg) alpha_du alpha_pr  ls
 130 -6.2016780e+00 9.32e-01 3.01e+05  -6.0 4.61e+02    -  7.24e-01 1.51e-01h  1
 131 -6.2039986e+00 8.54e-01 2.44e+05  -6.0 6.44e+02    -  3.16e-01 2.71e-01h  1
 132r-6.2039986e+00 8.54e-01 1.00e+03  -0.2 0.00e+00    -  0.00e+00 1.79e-07R  2
 133r-6.2156479e+00 8.52e-01 1.09e+03  -0.2 6.75e+03    -  1.14e-05 2.60e-06f  1
 134 -6.2143618e+00 7.59e-01 5.08e+05  -6.0 2.53e-01    -  4.24e-01 1.10e-01h  1
 135 -6.2121713e+00 5.98e-01 1.03e+06  -6.0 2.24e-01    -  1.10e-01 2.11e-01h  1
 136 -6.2045868e+00 3.96e-02 6.85e+04  -6.0 2.22e-01    -  5.09e-01 9.34e-01h  1
 137 -6.2045587e+00 7.56e-05 1.08e+01  -6.0 5.01e-01    -  9.24e-01 1.00e+00h  1
 138 -6.2084723e+00 5.00e-03 5.93e+00  -6.0 2.94e+00    -  6.80e-01 9.50e-01h  1
 139 -6.2069999e+00 2.30e-03 9.57e+00  -6.0 2.10e+00    -  6.56e-01 6.91e-01h  1
iter    objective    inf_pr   inf_du lg(mu)  ||d||  lg(rg) alpha_du alpha_pr  ls
 140 -6.2092649e+00 4.79e-03 5.62e+00  -6.0 6.04e+00    -  9.08e-01 7.70e-01f  1
 141 -6.2091924e+00 6.55e-03 2.14e+00  -6.0 2.17e+01    -  9.79e-01 1.00e+00h  1
 142 -6.2091919e+00 6.56e-03 8.20e+01  -6.0 6.57e+02    -  1.69e-01 2.57e-03h  7
 143 -6.2094141e+00 1.13e-01 1.80e+01  -6.0 3.04e+02    -  5.67e-01 3.64e-01h  1
 144 -6.2086587e+00 1.85e-03 9.40e+01  -6.0 1.37e+02    -  4.86e-01 1.00e+00H  1
 145 -6.2086888e+00 2.53e-03 4.98e+01  -6.0 1.67e+02    -  8.53e-01 2.04e-01h  3
 146 -6.2087442e+00 1.87e-03 2.27e+00  -6.0 4.92e+01    -  5.22e-01 1.00e+00H  1
 147 -6.2087482e+00 5.96e-03 2.23e+00  -6.0 5.30e+01    -  1.00e+00 1.00e+00h  1
 148 -6.2087448e+00 7.81e-07 2.60e-04  -6.0 4.97e-01    -  1.00e+00 1.00e+00h  1
 149 -6.2087448e+00 2.84e-10 5.77e-10  -6.0 9.09e-04    -  1.00e+00 1.00e+00h  1
iter    objective    inf_pr   inf_du lg(mu)  ||d||  lg(rg) alpha_du alpha_pr  ls
 150 -6.2087726e+00 1.35e-02 1.96e+02  -7.5 1.16e+02    -  9.20e-01 2.44e-01h  1
 151 -6.2088308e+00 1.22e-01 2.36e+01  -7.5 9.45e+01    -  1.00e+00 8.91e-01h  1
 152 -6.2088247e+00 6.05e-04 3.63e-02  -7.5 5.83e+00    -  1.00e+00 1.00e+00h  1
 153 -6.2088246e+00 1.00e-09 1.39e-04  -7.5 8.30e-03    -  1.00e+00 1.00e+00h  1
 154 -6.2088247e+00 2.85e-10 2.11e-06  -7.5 2.01e-03    -  1.00e+00 1.00e+00h  1
 155 -6.2088247e+00 4.00e-10 5.79e-11  -7.5 4.31e-06    -  1.00e+00 1.00e+00h  1
 156 -6.2088261e+00 1.74e-04 8.21e-01  -9.0 3.83e+00    -  9.23e-01 8.34e-01h  1
 157 -6.2088263e+00 6.98e-06 3.94e-01  -9.0 6.39e-01    -  9.11e-01 1.00e+00f  1
 158 -6.2088263e+00 2.84e-10 4.58e-09  -9.0 1.10e-04    -  1.00e+00 1.00e+00h  1

Number of Iterations....: 158

                                   (scaled)                 (unscaled)
Objective...............:  -4.8506455666654658e+00   -6.2088263253317963e+00
Dual infeasibility......:   4.5772652734225236e-09    5.8588995499808301e-09
Constraint violation....:   2.8401103994643573e-10    2.8401103994643573e-10
Complementarity.........:   1.3094295767297587e-09    1.6760698582140912e-09
Overall NLP error.......:   4.5772652734225236e-09    5.8588995499808301e-09


Number of objective function evaluations             = 295
Number of objective gradient evaluations             = 159
Number of equality constraint evaluations            = 295
Number of inequality constraint evaluations          = 295
Number of equality constraint Jacobian evaluations   = 163
Number of inequality constraint Jacobian evaluations = 163
Number of Lagrangian Hessian evaluations             = 158
Total CPU secs in IPOPT (w/o function evaluations)   =    328.875
Total CPU secs in NLP function evaluations           =      6.840

EXIT: Optimal Solution Found.
